19 112
15 145
40 21
3 198
13 168
33 91
28 61
71 17
16 4
52 115
89 4
16 46
10 152
64 90
41 37
3 126
97 19
29 25
18 10
37 117
76 4
76 6
30 30
75 53
65 9
58 32
91 4
18 72
7 173
10 51
42 106
7 194
71 47
78 45
30 97
92 16
23 131
20 81
19 166
35 149
68 18
32 75
13 83
9 74
9 194
13 171
23 70
19 21
83 31
1 43
3 21
41 43
24 194
57 26
8 65
17 69
89 2
70 36
63 9
22 11
10 81
55 27
2 30
33 93
16 181
37 4
23 164
32 27
45 32
27 63
85 61
40 40
52 38
68 4
50 77
100 28
25 57
64 16
51 1
39 102
43 78
48 62
49 53
67 42
85 66
82 52
66 31
38 65
1 31
82 44
43 28
5 139
15 90
19 9
66 16
24 8
26 151
29 70
22 124
55 76
